30
1 0 66
2 0 91
2 1 46
3 0 48
3 1 3
3 2 25
4 0 132
4 1 75
4 2 62
4 3 20
5 0 79
5 1 88
5 2 99
5 3 8
5 4 29
6 0 77
6 1 130
6 2 117
6 3 101
6 4 45
6 5 87
7 0 23
7 1 37
7 2 60
7 3 77
7 4 34
7 5 98
7 6 40
8 0 143
8 1 13
8 2 94
8 3 156
8 4 32
8 5 113
8 6 28
8 7 159
9 0 148
9 1 10
9 2 102
9 3 14
9 4 108
9 5 52
9 6 138
9 7 72
9 8 3
10 0 118
10 1 80
10 2 43
10 3 51
10 4 6
10 5 99
10 6 61
10 7 154
10 8 113
10 9 140
11 0 105
11 1 87
11 2 56
11 3 70
11 4 52
11 5 141
11 6 2
11 7 23
11 8 78
11 9 159
11 10 38
12 0 99
12 1 49
12 2 61
12 3 22
12 4 60
12 5 124
12 6 38
12 7 136
12 8 13
12 9 5
12 10 69
12 11 9
13 0 93
13 1 94
13 2 68
13 3 82
13 4 42
13 5 153
13 6 67
13 7 122
13 8 144
13 9 84
13 10 64
13 11 71
13 12 21
14 0 115
14 1 148
14 2 138
14 3 8
14 4 121
14 5 121
14 6 127
14 7 117
14 8 81
14 9 114
14 10 103
14 11 95
14 12 51
14 13 59
15 0 67
15 1 138
15 2 129
15 3 65
15 4 31
15 5 101
15 6 152
15 7 136
15 8 153
15 9 46
15 10 4
15 11 62
15 12 7
15 13 33
15 14 22
16 0 85
16 1 99
16 2 10
16 3 85
16 4 66
16 5 125
16 6 22
16 7 124
16 8 52
16 9 52
16 10 72
16 11 95
16 12 66
16 13 41
16 14 101
16 15 156
17 0 12
17 1 87
17 2 138
17 3 111
17 4 159
17 5 119
17 6 38
17 7 87
17 8 139
17 9 70
17 10 73
17 11 121
17 12 32
17 13 105
17 14 105
17 15 90
17 16 131
18 0 119
18 1 124
18 2 118
18 3 146
18 4 44
18 5 135
18 6 103
18 7 123
18 8 160
18 9 154
18 10 24
18 11 80
18 12 159
18 13 157
18 14 53
18 15 74
18 16 68
18 17 12
19 0 155
19 1 24
19 2 93
19 3 121
19 4 20
19 5 113
19 6 29
19 7 157
19 8 65
19 9 71
19 10 157
19 11 77
19 12 104
19 13 151
19 14 52
19 15 54
19 16 19
19 17 98
19 18 13
20 0 88
20 1 82
20 2 130
20 3 13
20 4 18
20 5 48
20 6 155
20 7 13
20 8 114
20 9 40
20 10 24
20 11 135
20 12 42
20 13 21
20 14 21
20 15 129
20 16 114
20 17 150
20 18 152
20 19 78
21 0 151
21 1 28
21 2 59
21 3 93
21 4 112
21 5 156
21 6 129
21 7 65
21 8 125
21 9 24
21 10 112
21 11 19
21 12 6
21 13 72
21 14 42
21 15 139
21 16 128
21 17 92
21 18 29
21 19 144
21 20 144
22 0 117
22 1 107
22 2 14
22 3 55
22 4 134
22 5 148
22 6 99
22 7 38
22 8 99
22 9 154
22 10 100
22 11 106
22 12 24
22 13 46
22 14 19
22 15 83
22 16 114
22 17 149
22 18 79
22 19 83
22 20 143
22 21 127
23 0 57
23 1 139
23 2 60
23 3 62
23 4 94
23 5 63
23 6 134
23 7 42
23 8 136
23 9 158
23 10 137
23 11 141
23 12 138
23 13 128
23 14 130
23 15 101
23 16 38
23 17 71
23 18 14
23 19 44
23 20 122
23 21 24
23 22 34
24 0 159
24 1 39
24 2 119
24 3 91
24 4 136
24 5 72
24 6 113
24 7 149
24 8 55
24 9 118
24 10 130
24 11 151
24 12 53
24 13 49
24 14 20
24 15 30
24 16 84
24 17 49
24 18 37
24 19 110
24 20 58
24 21 26
24 22 13
24 23 115
25 0 143
25 1 130
25 2 134
25 3 77
25 4 159
25 5 133
25 6 76
25 7 145
25 8 27
25 9 80
25 10 28
25 11 109
25 12 88
25 13 65
25 14 111
25 15 44
25 16 4
25 17 16
25 18 38
25 19 76
25 20 83
25 21 132
25 22 83
25 23 140
25 24 137
26 0 78
26 1 13
26 2 23
26 3 134
26 4 35
26 5 5
26 6 18
26 7 43
26 8 52
26 9 119
26 10 3
26 11 35
26 12 76
26 13 31
26 14 63
26 15 122
26 16 40
26 17 2
26 18 81
26 19 135
26 20 104
26 21 66
26 22 36
26 23 24
26 24 6
26 25 81
27 0 135
27 1 11
27 2 95
27 3 122
27 4 30
27 5 23
27 6 58
27 7 95
27 8 154
27 9 91
27 10 59
27 11 43
27 12 50
27 13 108
27 14 79
27 15 110
27 16 152
27 17 71
27 18 149
27 19 120
27 20 53
27 21 70
27 22 91
27 23 45
27 24 119
27 25 127
27 26 90
28 0 123
28 1 55
28 2 13
28 3 138
28 4 65
28 5 64
28 6 33
28 7 99
28 8 25
28 9 60
28 10 105
28 11 93
28 12 138
28 13 87
28 14 122
28 15 1
28 16 97
28 17 51
28 18 124
28 19 107
28 20 131
28 21 71
28 22 153
28 23 152
28 24 142
28 25 124
28 26 152
28 27 24
29 0 36
29 1 40
29 2 16
29 3 80
29 4 13
29 5 48
29 6 100
29 7 75
29 8 88
29 9 136
29 10 102
29 11 58
29 12 76
29 13 85
29 14 77
29 15 58
29 16 60
29 17 145
29 18 156
29 19 70
29 20 72
29 21 114
29 22 61
29 23 123
29 24 49
29 25 79
29 26 41
29 27 110
29 28 5
